# Solution for model GasLib-40
# Objective value = 1.1887394675343165e+01
loadshed[innode_1] 0
loadshed[innode_2] 0
loadshed[innode_3] 0
loadshed[innode_4] 0
loadshed[innode_5] 0
loadshed[innode_6] 0
loadshed[innode_7] 0
loadshed[innode_8] 0
loadshed[source_1] -3.1254770679525024e-01
loadshed[source_2] 9.4936772522108859e-02
loadshed[source_3] 2.9280464537545947e-01
loadshed[sink_1] 0
loadshed[sink_2] 0
loadshed[sink_3] 0
loadshed[sink_4] 0
loadshed[sink_5] 0
loadshed[sink_6] 0
loadshed[sink_7] 0
loadshed[sink_8] 0
loadshed[sink_9] 0
loadshed[sink_10] 0
loadshed[sink_11] 0
loadshed[sink_12] 0.726872540657926
loadshed[sink_13] 0
loadshed[sink_14] 0
loadshed[sink_15] 0
loadshed[sink_16] 0
loadshed[sink_17] 0
loadshed[sink_18] 0
loadshed[sink_19] 0
loadshed[sink_20] 0
loadshed[sink_21] 0
loadshed[sink_22] 0
loadshed[sink_23] 0
loadshed[sink_24] 0
loadshed[sink_25] 0
loadshed[sink_26] 0
loadshed[sink_27] 0
loadshed[sink_28] 0
loadshed[sink_29] 0
flow[source_1,sink_3] 2.0750103156384631e+02
flow[innode_1,sink_16] 1.6354166666666970e+01
flow[innode_6,sink_13] 2.6784566109326420e+00
flow[sink_13,sink_14] -1.3675710055734026e+01
flow[sink_14,sink_10] -3.0029876722400694e+01
flow[sink_25,sink_26] 1.7469608584622497e+02
flow[sink_26,sink_9] 1.3530010532465721e+02
flow[sink_9,sink_18] 1.1894593865799054e+02
flow[sink_26,sink_4] 2.3041813854901196e+01
flow[sink_4,sink_20] -1.6799915409786930e+01
flow[sink_18,sink_6] 1.0259177199132387e+02
flow[sink_25,innode_8] -1.7479269823050993e+02
flow[sink_6,sink_7] 5.3529271991323512e+01
flow[sink_6,sink_22] 3.2708333333333641e+01
flow[sink_7,sink_24] 3.7175105324656840e+01
flow[sink_22,sink_1] 1.6354166666666970e+01
flow[sink_24,sink_21] 2.0820938657990173e+01
flow[sink_21,sink_12] 4.4667719913235038e+00
flow[sink_7,sink_5] 0
flow[sink_5,sink_17] -1.6354166666667197e+01
flow[sink_17,sink_4] -2.3487562598021462e+01
flow[sink_17,sink_8] -9.2207707353124029e+00
flow[sink_3,sink_23] 16.3541666666697
flow[sink_8,sink_20] -2.5574937401979071e+01
flow[sink_25,sink_20] 5.8729019478432633e+01
flow[sink_25,sink_15] -7.7665030371747278e+01
flow[sink_15,sink_29] -1.1037336370509820e+02
flow[sink_29,sink_28] 1.6354166666667879e+01
flow[sink_29,sink_2] 0
flow[sink_2,sink_15] -1.6354166666684250e+01
flow[sink_29,innode_7] -1.4308169703843188e+02
flow[innode_4,sink_19] 9.5446543389067969e+01
flow[sink_19,innode_3] 3.8596745991791039e+01
flow[innode_4,innode_5] 1.6354166666679703e+01
flow[sink_27,innode_5] -1.6354166666679703e+01
flow[sink_27,sink_19] 0
flow[sink_10,sink_11] 3.2708333333333641e+01
flow[sink_10,innode_2] -4.0495630730609960e+01
flow[sink_10,innode_3] -3.8596745991791039e+01
flow[innode_6,sink_25] -2.6784566109326420e+00
flow[sink_11,innode_1] 1.6354166666666970e+01
flow[sink_19,innode_2] 4.0495630730609960e+01
flow[source_3,innode_4] 1.1180071005574767e+02
flow[source_2,innode_7] 1.4308169703843188e+02
flow[sink_3,innode_8] 1.7479269823050993e+02
pressure[innode_1] 7.4854404683981272e+01
pressure[innode_2] 7.7146467328130186e+01
pressure[innode_3] 7.7060999204738721e+01
pressure[innode_4] 81.01325
pressure[innode_5] 8.1002000741808772e+01
pressure[innode_6] 7.3576027024573264e+01
pressure[innode_7] 81.01325
pressure[innode_8] 8.0319653319749278e+01
pressure[source_1] 81.01325
pressure[source_2] 81.01325
pressure[source_3] 81.01325
pressure[sink_1] 4.4029821829188613e+01
pressure[sink_2] 7.3899385350611169e+01
pressure[sink_3] 8.0319653319749278e+01
pressure[sink_4] 5.8342688443356877e+01
pressure[sink_5] 56.2268040433494
pressure[sink_6] 4.6130899439575984e+01
pressure[sink_7] 4.5396070129607949e+01
pressure[sink_8] 5.7792994883520791e+01
pressure[sink_9] 5.3174223788105451e+01
pressure[sink_10] 7.5006105991584818e+01
pressure[sink_11] 7.4854404683981272e+01
pressure[sink_12] 1.0132499999999967e+00
pressure[sink_13] 7.3561261140888874e+01
pressure[sink_14] 7.3585734988946527e+01
pressure[sink_15] 7.3952778100377614e+01
pressure[sink_16] 7.3832754849163592e+01
pressure[sink_17] 5.7445071248704146e+01
pressure[sink_18] 4.8870405207591546e+01
pressure[sink_19] 7.7146467328130186e+01
pressure[sink_20] 5.9575208353162175e+01
pressure[sink_21] 2.6027719418962381e+00
pressure[sink_22] 4.5093590971543620e+01
pressure[sink_23] 8.0154935308089492e+01
pressure[sink_24] 2.8333444925743407e+00
pressure[sink_25] 7.3576027024573264e+01
pressure[sink_26] 6.1272284291745478e+01
pressure[sink_27] 8.0866291377726043e+01
pressure[sink_28] 7.6891092852508933e+01
pressure[sink_29] 7.7186375126126109e+01
interdiction[source_1,sink_3] 0
interdiction[innode_1,sink_16] 0
interdiction[innode_6,sink_13] 0
interdiction[sink_13,sink_14] 0
interdiction[sink_14,sink_10] 0
interdiction[sink_25,sink_26] 0
interdiction[sink_26,sink_9] 0
interdiction[sink_9,sink_18] 0
interdiction[sink_26,sink_4] 0
interdiction[sink_4,sink_20] 0
interdiction[sink_18,sink_6] 0
interdiction[sink_25,innode_8] 0
interdiction[sink_6,sink_7] 0
interdiction[sink_6,sink_22] 0
interdiction[sink_7,sink_24] 0
interdiction[sink_22,sink_1] 0
interdiction[sink_24,sink_21] 0
interdiction[sink_21,sink_12] 0
interdiction[sink_7,sink_5] 1
interdiction[sink_5,sink_17] 0
interdiction[sink_17,sink_4] 0
interdiction[sink_17,sink_8] 0
interdiction[sink_3,sink_23] 0
interdiction[sink_8,sink_20] 0
interdiction[sink_25,sink_20] 0
interdiction[sink_25,sink_15] 0
interdiction[sink_15,sink_29] 0
interdiction[sink_29,sink_28] 0
interdiction[sink_29,sink_2] 1
interdiction[sink_2,sink_15] 0
interdiction[sink_29,innode_7] 0
interdiction[innode_4,sink_19] 0
interdiction[sink_19,innode_3] 0
interdiction[innode_4,innode_5] 0
interdiction[sink_27,innode_5] 0
interdiction[sink_27,sink_19] 1
interdiction[sink_10,sink_11] 0
interdiction[sink_10,innode_2] 0
interdiction[sink_10,innode_3] 0
interdiction[innode_6,sink_25] 0
interdiction[sink_11,innode_1] 0
interdiction[sink_19,innode_2] 0
interdiction[source_3,innode_4] 0
interdiction[source_2,innode_7] 0
interdiction[sink_3,innode_8] 0
WCcheckFlow[source_1,sink_3] 39
WCcheckFlow[innode_1,sink_16] 1
WCcheckFlow[innode_6,sink_13] 13
WCcheckFlow[sink_13,sink_14] 12
WCcheckFlow[sink_14,sink_10] 11
WCcheckFlow[sink_25,sink_26] 15
WCcheckFlow[sink_26,sink_9] 9
WCcheckFlow[sink_9,sink_18] 8
WCcheckFlow[sink_26,sink_4] 5
WCcheckFlow[sink_4,sink_20] 1
WCcheckFlow[sink_18,sink_6] 7
WCcheckFlow[sink_25,innode_8] -36
WCcheckFlow[sink_6,sink_7] 4
WCcheckFlow[sink_6,sink_22] 2
WCcheckFlow[sink_7,sink_24] 3
WCcheckFlow[sink_22,sink_1] 1
WCcheckFlow[sink_24,sink_21] 2
WCcheckFlow[sink_21,sink_12] 1
WCcheckFlow[sink_7,sink_5] 0
WCcheckFlow[sink_5,sink_17] -1
WCcheckFlow[sink_17,sink_4] -3
WCcheckFlow[sink_17,sink_8] 1
WCcheckFlow[sink_3,sink_23] 1
WCcheckFlow[sink_8,sink_20] 0
WCcheckFlow[sink_25,sink_20] 0
WCcheckFlow[sink_25,sink_15] 6
WCcheckFlow[sink_15,sink_29] 4
WCcheckFlow[sink_29,sink_28] 1
WCcheckFlow[sink_29,sink_2] 0
WCcheckFlow[sink_2,sink_15] -1
WCcheckFlow[sink_29,innode_7] 2
WCcheckFlow[innode_4,sink_19] -4
WCcheckFlow[sink_19,innode_3] -5
WCcheckFlow[innode_4,innode_5] 2
WCcheckFlow[sink_27,innode_5] -1
WCcheckFlow[sink_27,sink_19] 0
WCcheckFlow[sink_10,sink_11] 3
WCcheckFlow[sink_10,innode_2] 1
WCcheckFlow[sink_10,innode_3] 6
WCcheckFlow[innode_6,sink_25] -14
WCcheckFlow[sink_11,innode_1] 2
WCcheckFlow[sink_19,innode_2] 0
WCcheckFlow[source_3,innode_4] -1
WCcheckFlow[source_2,innode_7] -1
WCcheckFlow[sink_3,innode_8] 37
